70
    1    53    54
    2    61    61
    3    58    61
    4    34    28
    5    56    55
    6    62    62
    7    36    40
    8    21    20
    9    31    34
   10    74    69
   11    43    36
   12    25    26
   13     8     9
   14     6     9
   15    56    53
   16    53    47
   17     8     6
   18    37    31
   19    37    38
   20    61    63
   21    27    26
   22    21    14
   23    33    39
   24    25    19
   25    19    17
   26    62    67
   27    27    33
   28    43    46
   29    19    14
   30    46    42
   31    73    66
   32    17    10
   33    28    32
   34    54    56
   35    62    65
   36    66    70
   37    46    43
   38    41    45
   39    41    43
   40    25    27
   41    37    38
   42    33    38
   43    53    59
   44    41    40
   45     9     8
   46    48    55
   47    22    16
   48    10    16
   49    34    38
   50    20    23
   51    61    65
   52     1     1
   53    48    42
   54    20    15
   55    70    69
   56    64    62
   57    20    16
   58    62    59
   59    64    57
   60    27    33
   61    41    37
   62    15    13
   63    18    22
   64    25    31
   65    10    14
   66    32    35
   67    11     9
   68    34    31
   69    62    69
   70    63    60
71
